networks/zoo_72_765/zoo_72_765.txt
Number of groups: 36
Flow 22: {25 19} {19 26} {26 62} 
Flow 87: {7 18} {18 54} 
Flow 105: {5 7} {7 2} {2 38} 
Flow 155: {1 4} {4 11} {11 47} 
Flow 164: {21 20} {20 56} 
Flow 177: {31 33} {33 69} 
Flow 204: {8 7} {7 31} {31 30} {30 66} 
Flow 220: {10 25} {25 61} 
Flow 222: {9 6} {6 34} {34 35} {35 71} 
Flow 259: {11 4} {4 13} {13 49} 
Flow 279: {12 4} {4 28} {28 27} {27 63} 
Flow 287: {13 4} {4 12} {12 48} 
Flow 308: {14 4} {4 10} {10 6} {6 9} {9 45} 
Flow 313: {3 22} {22 21} {21 57} 
Flow 319: {15 4} {4 3} {3 39} 
Flow 325: {16 4} {4 1} {1 2} {2 7} {7 43} 
Flow 345: {17 7} {7 35} {35 27} {27 36} {36 72} 
Flow 362: {18 7} {7 23} {23 59} 
Flow 383: {19 25} {25 10} {10 4} {4 16} {16 52} 
Flow 396: {6 32} {32 31} {31 67} 
Flow 436: {22 3} {3 4} {4 14} {14 50} 
Flow 440: {20 19} {19 55} 
Flow 450: {32 68} 
Flow 465: {4 15} {15 51} 
Flow 482: {2 1} {1 37} 
Flow 482: {23 7} 
Flow 506: {24 7} {7 17} {17 53} 
Flow 555: {26 19} {19 20} {20 21} {21 22} {22 58} 
Flow 609: {29 31} {31 7} {7 24} {24 60} 
Flow 620: {30 31} {31 32} {32 6} {6 42} 
Flow 658: {28 64} 
Flow 683: {33 34} {34 6} {6 10} {10 46} 
Flow 710: {35 7} {7 8} {8 44} 
Flow 729: {34 33} {33 31} {31 29} {29 65} 
Flow 763: {36 27} {27 28} {28 4} {4 40} 
Flow 764: {27 35} {35 34} 
Time taken running everything: 56 seconds
