networks/zoo_72_765/zoo_72_765.sol
<?xml version = "1.0" encoding="UTF-8" standalone="yes"?>
<CPLEXSolution version="1.2">
 <header
   problemName="networks/zoo_72_765/zoo_72_765.lp"
   solutionName="incumbent"
   solutionIndex="-1"
   objectiveValue="36"
   solutionTypeValue="3"
   solutionTypeString="primal"
   solutionStatusValue="101"
   solutionStatusString="integer optimal solution"
   solutionMethodString="mip"
   primalFeasible="1"
   dualFeasible="1"
   MIPNodes="2462"
   MIPIterations="523861"
   writeLevel="3"/>
 <quality
   epInt="1.0000000000000001e-05"
   epRHS="9.9999999999999995e-07"
   maxIntInfeas="0"
   maxPrimalInfeas="2.2204460492503131e-16"
   maxX="4"
   maxSlack="10"/>
 <variables>
  <variable name="Y(22,26)" index="1495" value="1"/>
  <variable name="Y(87,18)" index="6037" value="1"/>
  <variable name="Y(105,2)" index="7281" value="1"/>
  <variable name="Y(155,11)" index="10790" value="1"/>
  <variable name="Y(164,20)" index="11429" value="1"/>
  <variable name="Y(177,33)" index="12352" value="1"/>
  <variable name="Y(204,30)" index="14239" value="1"/>
  <variable name="Y(220,25)" index="15354" value="1"/>
  <variable name="Y(222,35)" index="15504" value="1"/>
  <variable name="Y(259,13)" index="18072" value="1"/>
  <variable name="Y(279,27)" index="19486" value="1"/>
  <variable name="Y(287,12)" index="20031" value="1"/>
  <variable name="Y(308,9)" index="21498" value="1"/>
  <variable name="Y(313,21)" index="21860" value="1"/>
  <variable name="Y(319,3)" index="22262" value="1"/>
  <variable name="Y(325,7)" index="22686" value="1"/>
  <variable name="Y(345,36)" index="24115" value="1"/>
  <variable name="Y(362,23)" index="25292" value="1"/>
  <variable name="Y(383,16)" index="26755" value="1"/>
  <variable name="Y(396,31)" index="27680" value="1"/>
  <variable name="Y(436,14)" index="30463" value="1"/>
  <variable name="Y(440,19)" index="30748" value="1"/>
  <variable name="Y(450,32)" index="31461" value="1"/>
  <variable name="Y(465,15)" index="32494" value="1"/>
  <variable name="Y(482,1)" index="33670" value="1"/>
  <variable name="Y(482,23)" index="33692" value="1"/>
  <variable name="Y(506,17)" index="35366" value="1"/>
  <variable name="Y(555,22)" index="38801" value="1"/>
  <variable name="Y(609,24)" index="42583" value="1"/>
  <variable name="Y(620,6)" index="43335" value="1"/>
  <variable name="Y(658,28)" index="46017" value="1"/>
  <variable name="Y(683,10)" index="47749" value="1"/>
  <variable name="Y(710,8)" index="49637" value="1"/>
  <variable name="Y(729,29)" index="50988" value="1"/>
  <variable name="Y(763,4)" index="53343" value="1"/>
  <variable name="Y(764,35)" index="53444" value="1"/>
  <variable name="X(1,2,325)" index="53874" value="1"/>
  <variable name="X(1,4,155)" index="54469" value="1"/>
  <variable name="X(1,37,482)" index="55561" value="1"/>
  <variable name="X(2,1,482)" index="56326" value="1"/>
  <variable name="X(2,7,325)" index="56934" value="1"/>
  <variable name="X(2,38,105)" index="57479" value="1"/>
  <variable name="X(3,4,436)" index="58575" value="1"/>
  <variable name="X(3,22,313)" index="59217" value="1"/>
  <variable name="X(3,39,319)" index="59988" value="1"/>
  <variable name="X(4,1,325)" index="60759" value="1"/>
  <variable name="X(4,3,319)" index="61518" value="1"/>
  <variable name="X(4,10,308)" index="62272" value="1"/>
  <variable name="X(4,11,155)" index="62884" value="1"/>
  <variable name="X(4,12,287)" index="63781" value="1"/>
  <variable name="X(4,13,259)" index="64518" value="1"/>
  <variable name="X(4,14,436)" index="65460" value="1"/>
  <variable name="X(4,15,465)" index="66254" value="1"/>
  <variable name="X(4,16,383)" index="66937" value="1"/>
  <variable name="X(4,28,279)" index="67598" value="1"/>
  <variable name="X(4,40,763)" index="68847" value="1"/>
  <variable name="X(5,7,105)" index="68954" value="1"/>
  <variable name="X(6,9,308)" index="69922" value="1"/>
  <variable name="X(6,10,683)" index="71062" value="1"/>
  <variable name="X(6,32,396)" index="71540" value="1"/>
  <variable name="X(6,34,222)" index="72131" value="1"/>
  <variable name="X(6,42,620)" index="73294" value="1"/>
  <variable name="X(7,2,105)" index="73544" value="1"/>
  <variable name="X(7,8,710)" index="74914" value="1"/>
  <variable name="X(7,17,506)" index="75475" value="1"/>
  <variable name="X(7,18,87)" index="75821" value="1"/>
  <variable name="X(7,23,362)" index="76861" value="1"/>
  <variable name="X(7,24,609)" index="77873" value="1"/>
  <variable name="X(7,31,204)" index="78233" value="1"/>
  <variable name="X(7,35,345)" index="79139" value="1"/>
  <variable name="X(7,43,325)" index="79884" value="1"/>
  <variable name="X(8,7,204)" index="80528" value="1"/>
  <variable name="X(8,44,710)" index="81799" value="1"/>
  <variable name="X(9,6,222)" index="82076" value="1"/>
  <variable name="X(9,45,308)" index="82927" value="1"/>
  <variable name="X(10,4,383)" index="83767" value="1"/>
  <variable name="X(10,6,308)" index="84457" value="1"/>
  <variable name="X(10,25,220)" index="85134" value="1"/>
  <variable name="X(10,46,683)" index="86362" value="1"/>
  <variable name="X(11,4,259)" index="86703" value="1"/>
  <variable name="X(11,47,155)" index="87364" value="1"/>
  <variable name="X(12,4,279)" index="88253" value="1"/>
  <variable name="X(12,48,287)" index="89026" value="1"/>
  <variable name="X(13,4,287)" index="89791" value="1"/>
  <variable name="X(13,49,259)" index="90528" value="1"/>
  <variable name="X(14,4,308)" index="91342" value="1"/>
  <variable name="X(14,50,436)" index="92235" value="1"/>
  <variable name="X(15,4,319)" index="92883" value="1"/>
  <variable name="X(15,51,465)" index="93794" value="1"/>
  <variable name="X(16,4,325)" index="94419" value="1"/>
  <variable name="X(16,52,383)" index="95242" value="1"/>
  <variable name="X(17,7,345)" index="95969" value="1"/>
  <variable name="X(17,53,506)" index="96895" value="1"/>
  <variable name="X(18,7,362)" index="97516" value="1"/>
  <variable name="X(18,54,87)" index="98006" value="1"/>
  <variable name="X(19,20,555)" index="99239" value="1"/>
  <variable name="X(19,25,383)" index="99832" value="1"/>
  <variable name="X(19,26,22)" index="100236" value="1"/>
  <variable name="X(19,55,440)" index="101419" value="1"/>
  <variable name="X(20,19,440)" index="102184" value="1"/>
  <variable name="X(20,21,555)" index="103064" value="1"/>
  <variable name="X(20,56,164)" index="103438" value="1"/>
  <variable name="X(21,20,164)" index="104203" value="1"/>
  <variable name="X(21,22,555)" index="105359" value="1"/>
  <variable name="X(21,57,313)" index="105882" value="1"/>
  <variable name="X(22,3,436)" index="106770" value="1"/>
  <variable name="X(22,21,313)" index="107412" value="1"/>
  <variable name="X(22,58,555)" index="108419" value="1"/>
  <variable name="X(23,7,482)" index="109111" value="1"/>
  <variable name="X(23,59,362)" index="109756" value="1"/>
  <variable name="X(24,7,506)" index="110665" value="1"/>
  <variable name="X(24,60,609)" index="111533" value="1"/>
  <variable name="X(25,10,383)" index="112072" value="1"/>
  <variable name="X(25,19,22)" index="112476" value="1"/>
  <variable name="X(25,61,220)" index="113439" value="1"/>
  <variable name="X(26,19,555)" index="114539" value="1"/>
  <variable name="X(26,62,22)" index="114771" value="1"/>
  <variable name="X(27,28,763)" index="116277" value="1"/>
  <variable name="X(27,35,764)" index="117043" value="1"/>
  <variable name="X(27,36,345)" index="117389" value="1"/>
  <variable name="X(27,63,279)" index="118088" value="1"/>
  <variable name="X(28,4,763)" index="119337" value="1"/>
  <variable name="X(28,27,279)" index="119618" value="1"/>
  <variable name="X(28,64,658)" index="120762" value="1"/>
  <variable name="X(29,31,609)" index="121478" value="1"/>
  <variable name="X(29,65,729)" index="122363" value="1"/>
  <variable name="X(30,31,620)" index="123019" value="1"/>
  <variable name="X(30,66,204)" index="123368" value="1"/>
  <variable name="X(31,7,609)" index="124538" value="1"/>
  <variable name="X(31,29,729)" index="125423" value="1"/>
  <variable name="X(31,30,204)" index="125663" value="1"/>
  <variable name="X(31,32,620)" index="126844" value="1"/>
  <variable name="X(31,33,177)" index="127166" value="1"/>
  <variable name="X(31,67,396)" index="128150" value="1"/>
  <variable name="X(32,6,620)" index="129139" value="1"/>
  <variable name="X(32,31,396)" index="129680" value="1"/>
  <variable name="X(32,68,450)" index="130499" value="1"/>
  <variable name="X(33,31,729)" index="131543" value="1"/>
  <variable name="X(33,34,683)" index="132262" value="1"/>
  <variable name="X(33,69,177)" index="132521" value="1"/>
  <variable name="X(34,6,683)" index="133792" value="1"/>
  <variable name="X(34,33,729)" index="134603" value="1"/>
  <variable name="X(34,35,222)" index="134861" value="1"/>
  <variable name="X(35,7,710)" index="136114" value="1"/>
  <variable name="X(35,27,345)" index="136514" value="1"/>
  <variable name="X(35,34,764)" index="137698" value="1"/>
  <variable name="X(35,71,222)" index="137921" value="1"/>
  <variable name="X(36,27,763)" index="139227" value="1"/>
  <variable name="X(36,72,345)" index="139574" value="1"/>
  <variable name="C(22,19)" index="140076" value="1"/>
  <variable name="C(22,26)" index="140077" value="2"/>
  <variable name="C(87,18)" index="140334" value="1"/>
  <variable name="C(105,7)" index="140408" value="1"/>
  <variable name="C(105,2)" index="140409" value="2"/>
  <variable name="C(155,4)" index="140623" value="1"/>
  <variable name="C(155,11)" index="140624" value="2"/>
  <variable name="C(164,20)" index="140668" value="1"/>
  <variable name="C(177,33)" index="140720" value="1"/>
  <variable name="C(204,7)" index="140861" value="1"/>
  <variable name="C(204,31)" index="140862" value="2"/>
  <variable name="C(204,30)" index="140863" value="3"/>
  <variable name="C(220,25)" index="140939" value="1"/>
  <variable name="C(222,6)" index="140946" value="1"/>
  <variable name="C(222,34)" index="140947" value="2"/>
  <variable name="C(222,35)" index="140948" value="3"/>
  <variable name="C(259,4)" index="141088" value="1"/>
  <variable name="C(259,13)" index="141089" value="2"/>
  <variable name="C(279,4)" index="141172" value="1"/>
  <variable name="C(279,28)" index="141173" value="2"/>
  <variable name="C(279,27)" index="141174" value="3"/>
  <variable name="C(287,4)" index="141202" value="1"/>
  <variable name="C(287,12)" index="141203" value="2"/>
  <variable name="C(308,4)" index="141291" value="1"/>
  <variable name="C(308,10)" index="141292" value="2"/>
  <variable name="C(308,6)" index="141293" value="3"/>
  <variable name="C(308,9)" index="141294" value="4"/>
  <variable name="C(313,22)" index="141315" value="1"/>
  <variable name="C(313,21)" index="141316" value="2"/>
  <variable name="C(319,15)" index="141340" value="2"/>
  <variable name="C(319,4)" index="141341" value="3"/>
  <variable name="C(319,3)" index="141342" value="4"/>
  <variable name="C(325,4)" index="141364" value="1"/>
  <variable name="C(325,1)" index="141365" value="2"/>
  <variable name="C(325,2)" index="141366" value="3"/>
  <variable name="C(325,7)" index="141367" value="4"/>
  <variable name="C(345,7)" index="141476" value="1"/>
  <variable name="C(345,35)" index="141477" value="2"/>
  <variable name="C(345,27)" index="141478" value="3"/>
  <variable name="C(345,36)" index="141479" value="4"/>
  <variable name="C(362,7)" index="141571" value="1"/>
  <variable name="C(362,23)" index="141572" value="2"/>
  <variable name="C(383,25)" index="141677" value="1"/>
  <variable name="C(383,10)" index="141678" value="2"/>
  <variable name="C(383,4)" index="141679" value="3"/>
  <variable name="C(383,16)" index="141680" value="4"/>
  <variable name="C(396,32)" index="141747" value="1"/>
  <variable name="C(396,31)" index="141748" value="2"/>
  <variable name="C(436,3)" index="141976" value="1"/>
  <variable name="C(436,4)" index="141977" value="2"/>
  <variable name="C(436,14)" index="141978" value="3"/>
  <variable name="C(440,19)" index="141999" value="0.99999999999999978"/>
  <variable name="C(465,15)" index="142126" value="1"/>
  <variable name="C(482,1)" index="142217" value="1"/>
  <variable name="C(506,7)" index="142336" value="1"/>
  <variable name="C(506,17)" index="142337" value="2"/>
  <variable name="C(555,19)" index="142589" value="1"/>
  <variable name="C(555,20)" index="142590" value="2"/>
  <variable name="C(555,21)" index="142591" value="3"/>
  <variable name="C(555,22)" index="142592" value="4"/>
  <variable name="C(609,31)" index="142856" value="1"/>
  <variable name="C(609,7)" index="142857" value="2"/>
  <variable name="C(609,24)" index="142858" value="3"/>
  <variable name="C(620,31)" index="142917" value="1"/>
  <variable name="C(620,32)" index="142918" value="2"/>
  <variable name="C(620,6)" index="142919" value="3"/>
  <variable name="C(683,34)" index="143218" value="1"/>
  <variable name="C(683,6)" index="143219" value="2"/>
  <variable name="C(683,10)" index="143220" value="3"/>
  <variable name="C(710,7)" index="143351" value="1"/>
  <variable name="C(710,8)" index="143352" value="2"/>
  <variable name="C(729,33)" index="143438" value="1"/>
  <variable name="C(729,31)" index="143439" value="2"/>
  <variable name="C(729,29)" index="143440" value="3"/>
  <variable name="C(763,27)" index="143579" value="1"/>
  <variable name="C(763,28)" index="143580" value="2"/>
  <variable name="C(763,4)" index="143581" value="3"/>
  <variable name="C(764,35)" index="143584" value="1"/>
 </variables>
</CPLEXSolution>
